38,53
38,55
127,3
200,25
9,41
67,61
183,66
123,8
68,17
1,52
158,87
180,2
3,48
108,36
89,93
122,1
151,15
72,11
178,79
69,40
112,67
112,34
79,76
131,61
182,24
141,26
169,15
141,37
54,87
108,44
55,37
49,32
128,45
104,99
176,53
160,82
173,92
141,19
19,58
157,75
173,56
70,82
142,22
103,1
88,74
62,63
196,58
131,41
187,82
66,61
